(set-info :smt-lib-version 2.6)

(set-info :source |
Generated by: Amar Shah
Generated on: 2024-12-11
Generator: Verus
Application: Verification of Rust Program
Target solver: z3
Time limit: 60
Benchmarks generated by the Rust verifier Verus (https://verus-lang.github.io/verus/guide/) on the project Anvil (https://www.usenix.org/conference/osdi24/presentation/sun-xudong) 
and processed using Mariposa (https://github.com/secure-foundations/mariposa).
This benchmarks was originally run with z3 with the following options:
    (set-option :auto_config false)
    (set-option :smt.mbqi false)
    (set-option :smt.case_split 3)
    (set-option :smt.qi.eager_threshold 100.0)
    (set-option :smt.delay_units true)
    (set-option :smt.arith.solver 2)
    (set-option :smt.arith.nl false)
    (set-option :pi.enabled false)
    (set-option :rewriter.sort_disjunctions false)
|)
(set-info :license "https://creativecommons.org/licenses/by/4.0/")
(set-info :category "industrial")
(set-info :status unsat)
(declare-sort %%Function%% 0)
(declare-sort FuelId 0)
(declare-sort Fuel 0)
(declare-const zero Fuel)
(declare-fun succ (Fuel) Fuel)
(declare-fun fuel_bool (FuelId) Bool)
(declare-fun fuel_bool_default (FuelId) Bool)
(declare-const fuel_defaults Bool)
(assert (=> fuel_defaults (forall ((id FuelId)) (! (= (fuel_bool id) (fuel_bool_default id)) :pattern ((fuel_bool id)) ))))
(declare-datatypes ((fndef 0)) (((fndef_singleton ))))
(declare-sort Poly 0)
(declare-sort Height 0)
(declare-fun I (Int) Poly)
(declare-fun B (Bool) Poly)
(declare-fun F (fndef) Poly)
(declare-fun %I (Poly) Int)
(declare-fun %B (Poly) Bool)
(declare-fun %F (Poly) fndef)
(declare-sort Type 0)
(declare-const BOOL Type)
(declare-const INT Type)
(declare-const NAT Type)
(declare-const CHAR Type)
(declare-fun UINT (Int) Type)
(declare-fun SINT (Int) Type)
(declare-fun CONST_INT (Int) Type)
(declare-sort Dcr 0)
(declare-const $ Dcr)
(declare-fun REF (Dcr) Dcr)
(declare-fun MUT_REF (Dcr) Dcr)
(declare-fun BOX (Dcr Type Dcr) Dcr)
(declare-fun RC (Dcr Type Dcr) Dcr)
(declare-fun ARC (Dcr Type Dcr) Dcr)
(declare-fun GHOST (Dcr) Dcr)
(declare-fun TRACKED (Dcr) Dcr)
(declare-fun NEVER (Dcr) Dcr)
(declare-fun CONST_PTR (Dcr) Dcr)
(declare-fun ARRAY (Dcr Type Dcr Type) Type)
(declare-fun SLICE (Dcr Type) Type)
(declare-const STRSLICE Type)
(declare-const ALLOCATOR_GLOBAL Type)
(declare-fun PTR (Dcr Type) Type)
(declare-fun has_type (Poly Type) Bool)
(declare-fun as_type (Poly Type) Poly)
(declare-fun mk_fun (%%Function%%) %%Function%%)
(declare-fun const_int (Type) Int)
(assert (forall ((i Int)) (! (= i (const_int (CONST_INT i))) :pattern ((CONST_INT i)) )))
(assert (forall ((b Bool)) (! (has_type (B b) BOOL) :pattern ((has_type (B b) BOOL)) )))
(assert (forall ((x Poly) (t Type)) (! (and (has_type (as_type x t) t) (=> (has_type x t) (= x (as_type x t)))) :pattern ((as_type x t)) )))
(assert (forall ((x %%Function%%)) (! (= (mk_fun x) x) :pattern ((mk_fun x)) )))
(assert (forall ((x Bool)) (! (= x (%B (B x))) :pattern ((B x)) )))
(assert (forall ((x Int)) (! (= x (%I (I x))) :pattern ((I x)) )))
(assert (forall ((x Poly)) (! (=> (has_type x BOOL) (= x (B (%B x)))) :pattern ((has_type x BOOL)) )))
(assert (forall ((x Poly)) (! (=> (has_type x INT) (= x (I (%I x)))) :pattern ((has_type x INT)) )))
(assert (forall ((x Poly)) (! (=> (has_type x NAT) (= x (I (%I x)))) :pattern ((has_type x NAT)) )))
(assert (forall ((bits Int) (x Poly)) (! (=> (has_type x (UINT bits)) (= x (I (%I x)))) :pattern ((has_type x (UINT bits))) )))
(assert (forall ((bits Int) (x Poly)) (! (=> (has_type x (SINT bits)) (= x (I (%I x)))) :pattern ((has_type x (SINT bits))) )))
(assert (forall ((x Poly)) (! (=> (has_type x CHAR) (= x (I (%I x)))) :pattern ((has_type x CHAR)) )))
(declare-fun ext_eq (Bool Type Poly Poly) Bool)
(assert (forall ((deep Bool) (t Type) (x Poly) (y Poly)) (! (= (= x y) (ext_eq deep t x y)) :pattern ((ext_eq deep t x y)) )))
(declare-const SZ Int)
(assert (or (= SZ 32) (= SZ 64)))
(declare-fun uHi (Int) Int)
(declare-fun iLo (Int) Int)
(declare-fun iHi (Int) Int)
(assert (= (uHi 8) 256))
(assert (= (uHi 16) 65536))
(assert (= (uHi 32) 4294967296))
(assert (= (uHi 64) 18446744073709551616))
(assert (= (uHi 128) (+ 1 340282366920938463463374607431768211455)))
(assert (= (iLo 8) (- 128)))
(assert (= (iLo 16) (- 32768)))
(assert (= (iLo 32) (- 2147483648)))
(assert (= (iLo 64) (- 9223372036854775808)))
(assert (= (iLo 128) (- 170141183460469231731687303715884105728)))
(assert (= (iHi 8) 128))
(assert (= (iHi 16) 32768))
(assert (= (iHi 32) 2147483648))
(assert (= (iHi 64) 9223372036854775808))
(assert (= (iHi 128) 170141183460469231731687303715884105728))
(declare-fun nClip (Int) Int)
(declare-fun uClip (Int Int) Int)
(declare-fun iClip (Int Int) Int)
(declare-fun charClip (Int) Int)
(assert (forall ((i Int)) (! (and (<= 0 (nClip i)) (=> (<= 0 i) (= i (nClip i)))) :pattern ((nClip i)) )))
(assert (forall ((bits Int) (i Int)) (! (and (<= 0 (uClip bits i)) (< (uClip bits i) (uHi bits)) (=> (and (<= 0 i) (< i (uHi bits))) (= i (uClip bits i)))) :pattern ((uClip bits i)) )))
(assert (forall ((bits Int) (i Int)) (! (and (<= (iLo bits) (iClip bits i)) (< (iClip bits i) (iHi bits)) (=> (and (<= (iLo bits) i) (< i (iHi bits))) (= i (iClip bits i)))) :pattern ((iClip bits i)) )))
(assert (forall ((i Int)) (! (and (or (and (<= 0 (charClip i)) (<= (charClip i) 55295)) (and (<= 57344 (charClip i)) (<= (charClip i) 1114111))) (=> (or (and (<= 0 i) (<= i 55295)) (and (<= 57344 i) (<= i 1114111))) (= i (charClip i)))) :pattern ((charClip i)) )))
(declare-fun uInv (Int Int) Bool)
(declare-fun iInv (Int Int) Bool)
(declare-fun charInv (Int) Bool)
(assert (forall ((bits Int) (i Int)) (! (= (uInv bits i) (and (<= 0 i) (< i (uHi bits)))) :pattern ((uInv bits i)) )))
(assert (forall ((bits Int) (i Int)) (! (= (iInv bits i) (and (<= (iLo bits) i) (< i (iHi bits)))) :pattern ((iInv bits i)) )))
(assert (forall ((i Int)) (! (= (charInv i) (or (and (<= 0 i) (<= i 55295)) (and (<= 57344 i) (<= i 1114111)))) :pattern ((charInv i)) )))
(assert (forall ((x Int)) (! (has_type (I x) INT) :pattern ((has_type (I x) INT)) )))
(assert (forall ((x Int)) (! (=> (<= 0 x) (has_type (I x) NAT)) :pattern ((has_type (I x) NAT)) )))
(assert (forall ((bits Int) (x Int)) (! (=> (uInv bits x) (has_type (I x) (UINT bits))) :pattern ((has_type (I x) (UINT bits))) )))
(assert (forall ((bits Int) (x Int)) (! (=> (iInv bits x) (has_type (I x) (SINT bits))) :pattern ((has_type (I x) (SINT bits))) )))
(assert (forall ((x Int)) (! (=> (charInv x) (has_type (I x) CHAR)) :pattern ((has_type (I x) CHAR)) )))
(assert (forall ((x Poly)) (! (=> (has_type x NAT) (<= 0 (%I x))) :pattern ((has_type x NAT)) )))
(assert (forall ((bits Int) (x Poly)) (! (=> (has_type x (UINT bits)) (uInv bits (%I x))) :pattern ((has_type x (UINT bits))) )))
(assert (forall ((bits Int) (x Poly)) (! (=> (has_type x (SINT bits)) (iInv bits (%I x))) :pattern ((has_type x (SINT bits))) )))
(declare-fun Add (Int Int) Int)
(declare-fun Sub (Int Int) Int)
(assert (forall ((x Int) (y Int)) (! (= (Add x y) (+ x y)) :pattern ((Add x y)))))
(assert (forall ((x Int) (y Int)) (! (= (Sub x y) (- x y)) :pattern ((Sub x y)))))
(declare-fun bitxor (Poly Poly) Int)
(declare-fun bitand (Poly Poly) Int)
(declare-fun bitor (Poly Poly) Int)
(declare-fun bitshr (Poly Poly) Int)
(declare-fun bitshl (Poly Poly) Int)
(declare-fun bitnot (Poly) Int)
(assert (forall ((x Poly) (y Poly) (bits Int)) (! (=> (and (uInv bits (%I x)) (uInv bits (%I y))) (uInv bits (bitxor x y))) :pattern ((uClip bits (bitxor x y))) )))
(assert (forall ((x Poly) (y Poly) (bits Int)) (! (=> (and (iInv bits (%I x)) (iInv bits (%I y))) (iInv bits (bitxor x y))) :pattern ((iClip bits (bitxor x y))) )))
(assert (forall ((x Poly) (y Poly) (bits Int)) (! (=> (and (uInv bits (%I x)) (uInv bits (%I y))) (uInv bits (bitor x y))) :pattern ((uClip bits (bitor x y))) )))
(assert (forall ((x Poly) (y Poly) (bits Int)) (! (=> (and (iInv bits (%I x)) (iInv bits (%I y))) (iInv bits (bitor x y))) :pattern ((iClip bits (bitor x y))) )))
(assert (forall ((x Poly) (y Poly) (bits Int)) (! (=> (and (uInv bits (%I x)) (uInv bits (%I y))) (uInv bits (bitand x y))) :pattern ((uClip bits (bitand x y))) )))
(assert (forall ((x Poly) (y Poly) (bits Int)) (! (=> (and (iInv bits (%I x)) (iInv bits (%I y))) (iInv bits (bitand x y))) :pattern ((iClip bits (bitand x y))) )))
(assert (forall ((x Poly) (y Poly) (bits Int)) (! (=> (and (uInv bits (%I x)) (<= 0 (%I y))) (uInv bits (bitshr x y))) :pattern ((uClip bits (bitshr x y))) )))
(assert (forall ((x Poly) (y Poly) (bits Int)) (! (=> (and (iInv bits (%I x)) (<= 0 (%I y))) (iInv bits (bitshr x y))) :pattern ((iClip bits (bitshr x y))) )))
(declare-fun singular_mod (Int Int) Int)
(declare-fun closure_req (Type Dcr Type Poly Poly) Bool)
(declare-fun closure_ens (Type Dcr Type Poly Poly Poly) Bool)
(declare-fun height (Poly) Height)
(declare-fun height_lt (Height Height) Bool)
(declare-fun fun_from_recursive_field (Poly) Poly)
(declare-fun check_decrease_int (Int Int Bool) Bool)
(assert (forall ((cur Int) (prev Int) (otherwise Bool)) (! (= (check_decrease_int cur prev otherwise) (or (and (<= 0 cur) (< cur prev)) (and (= cur prev) otherwise))) :pattern ((check_decrease_int cur prev otherwise)) )))
(declare-fun check_decrease_height (Poly Poly Bool) Bool)
(assert (forall ((cur Poly) (prev Poly) (otherwise Bool)) (! (= (check_decrease_height cur prev otherwise) (or (height_lt (height cur) (height prev)) (and (= (height cur) (height prev)) otherwise))) :pattern ((check_decrease_height cur prev otherwise)) )))
(declare-const fuel%vstd!set.axiom_set_new. FuelId)
(declare-const fuel%vstd!set.axiom_set_ext_equal. FuelId)
(declare-const fuel%vstd!set.axiom_set_ext_equal_deep. FuelId)
(declare-const fuel%lib!betree.Domain_v.impl&%0.arrow_end. FuelId)
(declare-const fuel%lib!betree.Domain_v.impl&%0.arrow_start. FuelId)
(declare-const fuel%lib!betree.Domain_v.impl&%0.arrow_Domain_start. FuelId)
(declare-const fuel%lib!betree.Domain_v.impl&%0.arrow_Domain_end. FuelId)
(declare-const fuel%lib!betree.Domain_v.total_domain. FuelId)
(declare-const fuel%lib!betree.Domain_v.impl&%1.wf. FuelId)
(declare-const fuel%lib!betree.Domain_v.impl&%1.contains. FuelId)
(declare-const fuel%lib!betree.Domain_v.impl&%1.includes. FuelId)
(declare-const fuel%lib!betree.Domain_v.impl&%1.key_set. FuelId)
(declare-const fuel%lib!spec.KeyType_t.impl&%0.arrow_e. FuelId)
(declare-const fuel%lib!spec.KeyType_t.to_key. FuelId)
(declare-const fuel%lib!spec.KeyType_t.to_element. FuelId)
(declare-const fuel%lib!spec.KeyType_t.impl&%1.lte. FuelId)
(declare-const fuel%lib!spec.KeyType_t.impl&%2.lte. FuelId)
(declare-const fuel%lib!spec.KeyType_t.impl&%2.lt. FuelId)
(declare-const fuel%lib!spec.KeyType_t.impl&%2.min_elem. FuelId)
(declare-const fuel%vstd!array.group_array_axioms. FuelId)
(declare-const fuel%vstd!map.group_map_axioms. FuelId)
(declare-const fuel%vstd!multiset.group_multiset_axioms. FuelId)
(declare-const fuel%vstd!raw_ptr.group_raw_ptr_axioms. FuelId)
(declare-const fuel%vstd!seq.group_seq_axioms. FuelId)
(declare-const fuel%vstd!seq_lib.group_seq_lib_default. FuelId)
(declare-const fuel%vstd!set.group_set_axioms. FuelId)
(declare-const fuel%vstd!set_lib.group_set_lib_axioms. FuelId)
(declare-const fuel%vstd!slice.group_slice_axioms. FuelId)
(declare-const fuel%vstd!string.group_string_axioms. FuelId)
(declare-const fuel%vstd!std_specs.bits.group_bits_axioms. FuelId)
(declare-const fuel%vstd!std_specs.control_flow.group_control_flow_axioms. FuelId)
(declare-const fuel%vstd!std_specs.range.group_range_axioms. FuelId)
(declare-const fuel%vstd!std_specs.vec.group_vec_axioms. FuelId)
(declare-const fuel%vstd!group_vstd_default. FuelId)
(assert (distinct fuel%vstd!set.axiom_set_new. fuel%vstd!set.axiom_set_ext_equal. fuel%vstd!set.axiom_set_ext_equal_deep. fuel%lib!betree.Domain_v.impl&%0.arrow_end. fuel%lib!betree.Domain_v.impl&%0.arrow_start. fuel%lib!betree.Domain_v.impl&%0.arrow_Domain_start. fuel%lib!betree.Domain_v.impl&%0.arrow_Domain_end. fuel%lib!betree.Domain_v.total_domain. fuel%lib!betree.Domain_v.impl&%1.wf. fuel%lib!betree.Domain_v.impl&%1.contains. fuel%lib!betree.Domain_v.impl&%1.includes. fuel%lib!betree.Domain_v.impl&%1.key_set. fuel%lib!spec.KeyType_t.impl&%0.arrow_e. fuel%lib!spec.KeyType_t.to_key. fuel%lib!spec.KeyType_t.to_element. fuel%lib!spec.KeyType_t.impl&%1.lte. fuel%lib!spec.KeyType_t.impl&%2.lte. fuel%lib!spec.KeyType_t.impl&%2.lt. fuel%lib!spec.KeyType_t.impl&%2.min_elem. fuel%vstd!array.group_array_axioms. fuel%vstd!map.group_map_axioms. fuel%vstd!multiset.group_multiset_axioms. fuel%vstd!raw_ptr.group_raw_ptr_axioms. fuel%vstd!seq.group_seq_axioms. fuel%vstd!seq_lib.group_seq_lib_default. fuel%vstd!set.group_set_axioms. fuel%vstd!set_lib.group_set_lib_axioms. fuel%vstd!slice.group_slice_axioms. fuel%vstd!string.group_string_axioms. fuel%vstd!std_specs.bits.group_bits_axioms. fuel%vstd!std_specs.control_flow.group_control_flow_axioms. fuel%vstd!std_specs.range.group_range_axioms. fuel%vstd!std_specs.vec.group_vec_axioms. fuel%vstd!group_vstd_default.))
(assert (=> (fuel_bool_default fuel%vstd!set.group_set_axioms.) (and (fuel_bool_default fuel%vstd!set.axiom_set_new.) (fuel_bool_default fuel%vstd!set.axiom_set_ext_equal.) (fuel_bool_default fuel%vstd!set.axiom_set_ext_equal_deep.))))
(assert (fuel_bool_default fuel%vstd!group_vstd_default.))
(assert (=> (fuel_bool_default fuel%vstd!group_vstd_default.) (and (fuel_bool_default fuel%vstd!seq.group_seq_axioms.) (fuel_bool_default fuel%vstd!seq_lib.group_seq_lib_default.) (fuel_bool_default fuel%vstd!map.group_map_axioms.) (fuel_bool_default fuel%vstd!set.group_set_axioms.) (fuel_bool_default fuel%vstd!set_lib.group_set_lib_axioms.) (fuel_bool_default fuel%vstd!std_specs.bits.group_bits_axioms.) (fuel_bool_default fuel%vstd!std_specs.control_flow.group_control_flow_axioms.) (fuel_bool_default fuel%vstd!std_specs.vec.group_vec_axioms.) (fuel_bool_default fuel%vstd!slice.group_slice_axioms.) (fuel_bool_default fuel%vstd!array.group_array_axioms.) (fuel_bool_default fuel%vstd!multiset.group_multiset_axioms.) (fuel_bool_default fuel%vstd!string.group_string_axioms.) (fuel_bool_default fuel%vstd!std_specs.range.group_range_axioms.) (fuel_bool_default fuel%vstd!raw_ptr.group_raw_ptr_axioms.))))
(declare-sort vstd!set.Set<lib!spec.KeyType_t.Key.>. 0)
(declare-datatypes ((lib!betree.Domain_v.Domain. 0) (lib!spec.KeyType_t.Key. 0) (lib!spec.KeyType_t.Element. 0) (tuple%0. 0)) (((lib!betree.Domain_v.Domain./EmptyDomain ) (lib!betree.Domain_v.Domain./Domain (lib!betree.Domain_v.Domain./Domain/?start lib!spec.KeyType_t.Element.) (lib!betree.Domain_v.Domain./Domain/?end lib!spec.KeyType_t.Element.))) ((lib!spec.KeyType_t.Key./Key (lib!spec.KeyType_t.Key./Key/?0 Int))) ((lib!spec.KeyType_t.Element./Max ) (lib!spec.KeyType_t.Element./Elem (lib!spec.KeyType_t.Element./Elem/?e Int))) ((tuple%0./tuple%0 ))))
(declare-fun lib!betree.Domain_v.Domain./Domain/start (lib!betree.Domain_v.Domain.) lib!spec.KeyType_t.Element.)
(declare-fun lib!betree.Domain_v.Domain./Domain/end (lib!betree.Domain_v.Domain.) lib!spec.KeyType_t.Element.)
(declare-fun lib!spec.KeyType_t.Key./Key/0 (lib!spec.KeyType_t.Key.) Int)
(declare-fun lib!spec.KeyType_t.Element./Elem/e (lib!spec.KeyType_t.Element.) Int)
(declare-fun TYPE%fun%1. (Dcr Type Dcr Type) Type)
(declare-fun TYPE%vstd!set.Set. (Dcr Type) Type)
(declare-const TYPE%lib!betree.Domain_v.Domain. Type)
(declare-const TYPE%lib!spec.KeyType_t.Key. Type)
(declare-const TYPE%lib!spec.KeyType_t.Element. Type)
(declare-const TYPE%tuple%0. Type)
(declare-fun Poly%fun%1. (%%Function%%) Poly)
(declare-fun %Poly%fun%1. (Poly) %%Function%%)
(declare-fun Poly%vstd!set.Set<lib!spec.KeyType_t.Key.>. (vstd!set.Set<lib!spec.KeyType_t.Key.>.) Poly)
(declare-fun %Poly%vstd!set.Set<lib!spec.KeyType_t.Key.>. (Poly) vstd!set.Set<lib!spec.KeyType_t.Key.>.)
(declare-fun Poly%lib!betree.Domain_v.Domain. (lib!betree.Domain_v.Domain.) Poly)
(declare-fun %Poly%lib!betree.Domain_v.Domain. (Poly) lib!betree.Domain_v.Domain.)
(declare-fun Poly%lib!spec.KeyType_t.Key. (lib!spec.KeyType_t.Key.) Poly)
(declare-fun %Poly%lib!spec.KeyType_t.Key. (Poly) lib!spec.KeyType_t.Key.)
(declare-fun Poly%lib!spec.KeyType_t.Element. (lib!spec.KeyType_t.Element.) Poly)
(declare-fun %Poly%lib!spec.KeyType_t.Element. (Poly) lib!spec.KeyType_t.Element.)
(declare-fun Poly%tuple%0. (tuple%0.) Poly)
(declare-fun %Poly%tuple%0. (Poly) tuple%0.)
(assert (forall ((x %%Function%%)) (! (= x (%Poly%fun%1. (Poly%fun%1. x))) :pattern ((Poly%fun%1. x)) )))
(assert (forall ((T%0&. Dcr) (T%0& Type) (T%1&. Dcr) (T%1& Type) (x Poly)) (! (=> (has_type x (TYPE%fun%1. T%0&. T%0& T%1&. T%1&)) (= x (Poly%fun%1. (%Poly%fun%1. x)))) :pattern ((has_type x (TYPE%fun%1. T%0&. T%0& T%1&. T%1&))) )))
(declare-fun %%apply%%0 (%%Function%% Poly) Poly)
(assert (forall ((T%0&. Dcr) (T%0& Type) (T%1&. Dcr) (T%1& Type) (x %%Function%%)) (! (=> (forall ((T%0 Poly)) (! (=> (has_type T%0 T%0&) (has_type (%%apply%%0 x T%0) T%1&)) :pattern ((has_type (%%apply%%0 x T%0) T%1&)) )) (has_type (Poly%fun%1. (mk_fun x)) (TYPE%fun%1. T%0&. T%0& T%1&. T%1&))) :pattern ((has_type (Poly%fun%1. (mk_fun x)) (TYPE%fun%1. T%0&. T%0& T%1&. T%1&))) )))
(assert (forall ((T%0&. Dcr) (T%0& Type) (T%1&. Dcr) (T%1& Type) (T%0 Poly) (x %%Function%%)) (! (=> (and (has_type (Poly%fun%1. x) (TYPE%fun%1. T%0&. T%0& T%1&. T%1&)) (has_type T%0 T%0&)) (has_type (%%apply%%0 x T%0) T%1&)) :pattern ((%%apply%%0 x T%0) (has_type (Poly%fun%1. x) (TYPE%fun%1. T%0&. T%0& T%1&. T%1&))) )))
(assert (forall ((T%0&. Dcr) (T%0& Type) (T%1&. Dcr) (T%1& Type) (T%0 Poly) (x %%Function%%)) (! (=> (and (has_type (Poly%fun%1. x) (TYPE%fun%1. T%0&. T%0& T%1&. T%1&)) (has_type T%0 T%0&)) (height_lt (height (%%apply%%0 x T%0)) (height (fun_from_recursive_field (Poly%fun%1. (mk_fun x)))))) :pattern ((height (%%apply%%0 x T%0)) (has_type (Poly%fun%1. x) (TYPE%fun%1. T%0&. T%0& T%1&. T%1&))) )))
(assert (forall ((T%0&. Dcr) (T%0& Type) (T%1&. Dcr) (T%1& Type) (deep Bool) (x Poly) (y Poly)) (! (=> (and (has_type x (TYPE%fun%1. T%0&. T%0& T%1&. T%1&)) (has_type y (TYPE%fun%1. T%0&. T%0& T%1&. T%1&)) (forall ((T%0 Poly)) (! (=> (has_type T%0 T%0&) (ext_eq deep T%1& (%%apply%%0 (%Poly%fun%1. x) T%0) (%%apply%%0 (%Poly%fun%1. y) T%0))) :pattern ((ext_eq deep T%1& (%%apply%%0 (%Poly%fun%1. x) T%0) (%%apply%%0 (%Poly%fun%1. y) T%0))) ))) (ext_eq deep (TYPE%fun%1. T%0&. T%0& T%1&. T%1&) x y)) :pattern ((ext_eq deep (TYPE%fun%1. T%0&. T%0& T%1&. T%1&) x y)) )))
(assert (forall ((x vstd!set.Set<lib!spec.KeyType_t.Key.>.)) (! (= x (%Poly%vstd!set.Set<lib!spec.KeyType_t.Key.>. (Poly%vstd!set.Set<lib!spec.KeyType_t.Key.>. x))) :pattern ((Poly%vstd!set.Set<lib!spec.KeyType_t.Key.>. x)) )))
(assert (forall ((x Poly)) (! (=> (has_type x (TYPE%vstd!set.Set. $ TYPE%lib!spec.KeyType_t.Key.)) (= x (Poly%vstd!set.Set<lib!spec.KeyType_t.Key.>. (%Poly%vstd!set.Set<lib!spec.KeyType_t.Key.>. x)))) :pattern ((has_type x (TYPE%vstd!set.Set. $ TYPE%lib!spec.KeyType_t.Key.))) )))
(assert (forall ((x vstd!set.Set<lib!spec.KeyType_t.Key.>.)) (! (has_type (Poly%vstd!set.Set<lib!spec.KeyType_t.Key.>. x) (TYPE%vstd!set.Set. $ TYPE%lib!spec.KeyType_t.Key.)) :pattern ((has_type (Poly%vstd!set.Set<lib!spec.KeyType_t.Key.>. x) (TYPE%vstd!set.Set. $ TYPE%lib!spec.KeyType_t.Key.))) )))
(assert (forall ((x lib!betree.Domain_v.Domain.)) (! (= x (%Poly%lib!betree.Domain_v.Domain. (Poly%lib!betree.Domain_v.Domain. x))) :pattern ((Poly%lib!betree.Domain_v.Domain. x)) )))
(assert (forall ((x Poly)) (! (=> (has_type x TYPE%lib!betree.Domain_v.Domain.) (= x (Poly%lib!betree.Domain_v.Domain. (%Poly%lib!betree.Domain_v.Domain. x)))) :pattern ((has_type x TYPE%lib!betree.Domain_v.Domain.)) )))
(assert (has_type (Poly%lib!betree.Domain_v.Domain. lib!betree.Domain_v.Domain./EmptyDomain) TYPE%lib!betree.Domain_v.Domain.))
(assert (forall ((_start! lib!spec.KeyType_t.Element.) (_end! lib!spec.KeyType_t.Element.)) (! (=> (and (has_type (Poly%lib!spec.KeyType_t.Element. _start!) TYPE%lib!spec.KeyType_t.Element.) (has_type (Poly%lib!spec.KeyType_t.Element. _end!) TYPE%lib!spec.KeyType_t.Element.)) (has_type (Poly%lib!betree.Domain_v.Domain. (lib!betree.Domain_v.Domain./Domain _start! _end!)) TYPE%lib!betree.Domain_v.Domain.)) :pattern ((has_type (Poly%lib!betree.Domain_v.Domain. (lib!betree.Domain_v.Domain./Domain _start! _end!)) TYPE%lib!betree.Domain_v.Domain.)) )))
(assert (forall ((x lib!betree.Domain_v.Domain.)) (! (= (lib!betree.Domain_v.Domain./Domain/start x) (lib!betree.Domain_v.Domain./Domain/?start x)) :pattern ((lib!betree.Domain_v.Domain./Domain/start x)) )))
(assert (forall ((x Poly)) (! (=> (has_type x TYPE%lib!betree.Domain_v.Domain.) (has_type (Poly%lib!spec.KeyType_t.Element. (lib!betree.Domain_v.Domain./Domain/start (%Poly%lib!betree.Domain_v.Domain. x))) TYPE%lib!spec.KeyType_t.Element.)) :pattern ((lib!betree.Domain_v.Domain./Domain/start (%Poly%lib!betree.Domain_v.Domain. x)) (has_type x TYPE%lib!betree.Domain_v.Domain.)) )))
(assert (forall ((x lib!betree.Domain_v.Domain.)) (! (= (lib!betree.Domain_v.Domain./Domain/end x) (lib!betree.Domain_v.Domain./Domain/?end x)) :pattern ((lib!betree.Domain_v.Domain./Domain/end x)) )))
(assert (forall ((x Poly)) (! (=> (has_type x TYPE%lib!betree.Domain_v.Domain.) (has_type (Poly%lib!spec.KeyType_t.Element. (lib!betree.Domain_v.Domain./Domain/end (%Poly%lib!betree.Domain_v.Domain. x))) TYPE%lib!spec.KeyType_t.Element.)) :pattern ((lib!betree.Domain_v.Domain./Domain/end (%Poly%lib!betree.Domain_v.Domain. x)) (has_type x TYPE%lib!betree.Domain_v.Domain.)) )))
(assert (forall ((x lib!spec.KeyType_t.Key.)) (! (= x (%Poly%lib!spec.KeyType_t.Key. (Poly%lib!spec.KeyType_t.Key. x))) :pattern ((Poly%lib!spec.KeyType_t.Key. x)) )))
(assert (forall ((x Poly)) (! (=> (has_type x TYPE%lib!spec.KeyType_t.Key.) (= x (Poly%lib!spec.KeyType_t.Key. (%Poly%lib!spec.KeyType_t.Key. x)))) :pattern ((has_type x TYPE%lib!spec.KeyType_t.Key.)) )))
(assert (forall ((_0! Int)) (! (=> (uInv 64 _0!) (has_type (Poly%lib!spec.KeyType_t.Key. (lib!spec.KeyType_t.Key./Key _0!)) TYPE%lib!spec.KeyType_t.Key.)) :pattern ((has_type (Poly%lib!spec.KeyType_t.Key. (lib!spec.KeyType_t.Key./Key _0!)) TYPE%lib!spec.KeyType_t.Key.)) )))
(assert (forall ((x lib!spec.KeyType_t.Key.)) (! (= (lib!spec.KeyType_t.Key./Key/0 x) (lib!spec.KeyType_t.Key./Key/?0 x)) :pattern ((lib!spec.KeyType_t.Key./Key/0 x)) )))
(assert (forall ((x Poly)) (! (=> (has_type x TYPE%lib!spec.KeyType_t.Key.) (uInv 64 (lib!spec.KeyType_t.Key./Key/0 (%Poly%lib!spec.KeyType_t.Key. x)))) :pattern ((lib!spec.KeyType_t.Key./Key/0 (%Poly%lib!spec.KeyType_t.Key. x)) (has_type x TYPE%lib!spec.KeyType_t.Key.)) )))
(assert (forall ((x lib!spec.KeyType_t.Element.)) (! (= x (%Poly%lib!spec.KeyType_t.Element. (Poly%lib!spec.KeyType_t.Element. x))) :pattern ((Poly%lib!spec.KeyType_t.Element. x)) )))
(assert (forall ((x Poly)) (! (=> (has_type x TYPE%lib!spec.KeyType_t.Element.) (= x (Poly%lib!spec.KeyType_t.Element. (%Poly%lib!spec.KeyType_t.Element. x)))) :pattern ((has_type x TYPE%lib!spec.KeyType_t.Element.)) )))
(assert (has_type (Poly%lib!spec.KeyType_t.Element. lib!spec.KeyType_t.Element./Max) TYPE%lib!spec.KeyType_t.Element.))
(assert (forall ((_e! Int)) (! (=> (uInv 64 _e!) (has_type (Poly%lib!spec.KeyType_t.Element. (lib!spec.KeyType_t.Element./Elem _e!)) TYPE%lib!spec.KeyType_t.Element.)) :pattern ((has_type (Poly%lib!spec.KeyType_t.Element. (lib!spec.KeyType_t.Element./Elem _e!)) TYPE%lib!spec.KeyType_t.Element.)) )))
(assert (forall ((x lib!spec.KeyType_t.Element.)) (! (= (lib!spec.KeyType_t.Element./Elem/e x) (lib!spec.KeyType_t.Element./Elem/?e x)) :pattern ((lib!spec.KeyType_t.Element./Elem/e x)) )))
(assert (forall ((x Poly)) (! (=> (has_type x TYPE%lib!spec.KeyType_t.Element.) (uInv 64 (lib!spec.KeyType_t.Element./Elem/e (%Poly%lib!spec.KeyType_t.Element. x)))) :pattern ((lib!spec.KeyType_t.Element./Elem/e (%Poly%lib!spec.KeyType_t.Element. x)) (has_type x TYPE%lib!spec.KeyType_t.Element.)) )))
(assert (forall ((x tuple%0.)) (! (= x (%Poly%tuple%0. (Poly%tuple%0. x))) :pattern ((Poly%tuple%0. x)) )))
(assert (forall ((x Poly)) (! (=> (has_type x TYPE%tuple%0.) (= x (Poly%tuple%0. (%Poly%tuple%0. x)))) :pattern ((has_type x TYPE%tuple%0.)) )))
(assert (forall ((x tuple%0.)) (! (has_type (Poly%tuple%0. x) TYPE%tuple%0.) :pattern ((has_type (Poly%tuple%0. x) TYPE%tuple%0.)) )))
(declare-fun vstd!set.impl&%0.contains.? (Dcr Type Poly Poly) Bool)
(declare-fun vstd!set.impl&%0.new.? (Dcr Type Dcr Type Poly) Poly)
(declare-fun lib!spec.KeyType_t.impl&%1.lte.? (Poly Poly) Bool)
(declare-fun lib!spec.KeyType_t.impl&%0.arrow_e.? (Poly) Int)
(declare-fun lib!spec.KeyType_t.to_key.? (Poly) lib!spec.KeyType_t.Key.)
(declare-fun lib!spec.KeyType_t.impl&%2.lte.? (Poly Poly) Bool)
(declare-fun lib!spec.KeyType_t.impl&%2.lt.? (Poly Poly) Bool)
(declare-fun lib!spec.KeyType_t.to_element.? (Poly) lib!spec.KeyType_t.Element.)
(declare-fun lib!betree.Domain_v.impl&%0.arrow_start.? (Poly) lib!spec.KeyType_t.Element.)
(declare-fun lib!betree.Domain_v.impl&%0.arrow_end.? (Poly) lib!spec.KeyType_t.Element.)
(declare-fun lib!betree.Domain_v.impl&%1.wf.? (Poly) Bool)
(declare-fun lib!spec.KeyType_t.impl&%2.min_elem.? (Poly) lib!spec.KeyType_t.Element.)
(declare-fun lib!betree.Domain_v.total_domain.? (Poly) lib!betree.Domain_v.Domain.)
(declare-fun lib!betree.Domain_v.impl&%1.contains.? (Poly Poly) Bool)
(declare-fun lib!betree.Domain_v.impl&%1.key_set.? (Poly) vstd!set.Set<lib!spec.KeyType_t.Key.>.)
(declare-fun lib!betree.Domain_v.impl&%0.arrow_Domain_start.? (Poly) lib!spec.KeyType_t.Element.)
(declare-fun lib!betree.Domain_v.impl&%0.arrow_Domain_end.? (Poly) lib!spec.KeyType_t.Element.)
(declare-fun lib!betree.Domain_v.impl&%1.includes.? (Poly Poly) Bool)
(assert (forall ((A&. Dcr) (A& Type) (F&. Dcr) (F& Type) (f! Poly)) (! (=> (has_type f! F&) (has_type (vstd!set.impl&%0.new.? A&. A& F&. F& f!) (TYPE%vstd!set.Set. A&. A&))) :pattern ((vstd!set.impl&%0.new.? A&. A& F&. F& f!)) )))
(assert (=> (fuel_bool fuel%vstd!set.axiom_set_new.) (forall ((A&. Dcr) (A& Type) (f! Poly) (a! Poly)) (! (=> (and (has_type f! (TYPE%fun%1. A&. A& $ BOOL)) (has_type a! A&)) (= (vstd!set.impl&%0.contains.? A&. A& (vstd!set.impl&%0.new.? A&. A& $ (TYPE%fun%1. A&. A& $ BOOL) f!) a!) (%B (%%apply%%0 (%Poly%fun%1. f!) a!)))) :pattern ((vstd!set.impl&%0.contains.? A&. A& (vstd!set.impl&%0.new.? A&. A& $ (TYPE%fun%1. A&. A& $ BOOL) f!) a!)) ))))
(assert (=> (fuel_bool fuel%vstd!set.axiom_set_ext_equal.) (forall ((A&. Dcr) (A& Type) (s1! Poly) (s2! Poly)) (! (=> (and (has_type s1! (TYPE%vstd!set.Set. A&. A&)) (has_type s2! (TYPE%vstd!set.Set. A&. A&))) (= (ext_eq false (TYPE%vstd!set.Set. A&. A&) s1! s2!) (forall ((a$ Poly)) (! (=> (has_type a$ A&) (= (vstd!set.impl&%0.contains.? A&. A& s1! a$) (vstd!set.impl&%0.contains.? A&. A& s2! a$))) :pattern ((vstd!set.impl&%0.contains.? A&. A& s1! a$)) :pattern ((vstd!set.impl&%0.contains.? A&. A& s2! a$)) )))) :pattern ((ext_eq false (TYPE%vstd!set.Set. A&. A&) s1! s2!)) ))))
(assert (=> (fuel_bool fuel%vstd!set.axiom_set_ext_equal_deep.) (forall ((A&. Dcr) (A& Type) (s1! Poly) (s2! Poly)) (! (=> (and (has_type s1! (TYPE%vstd!set.Set. A&. A&)) (has_type s2! (TYPE%vstd!set.Set. A&. A&))) (= (ext_eq true (TYPE%vstd!set.Set. A&. A&) s1! s2!) (ext_eq false (TYPE%vstd!set.Set. A&. A&) s1! s2!))) :pattern ((ext_eq true (TYPE%vstd!set.Set. A&. A&) s1! s2!)) ))))
(assert (fuel_bool_default fuel%lib!spec.KeyType_t.impl&%1.lte.))
(assert (=> (fuel_bool fuel%lib!spec.KeyType_t.impl&%1.lte.) (forall ((a! Poly) (b! Poly)) (! (= (lib!spec.KeyType_t.impl&%1.lte.? a! b!) (<= (lib!spec.KeyType_t.Key./Key/0 (%Poly%lib!spec.KeyType_t.Key. a!)) (lib!spec.KeyType_t.Key./Key/0 (%Poly%lib!spec.KeyType_t.Key. b!)))) :pattern ((lib!spec.KeyType_t.impl&%1.lte.? a! b!)) ))))
(assert (fuel_bool_default fuel%lib!spec.KeyType_t.impl&%0.arrow_e.))
(assert (=> (fuel_bool fuel%lib!spec.KeyType_t.impl&%0.arrow_e.) (forall ((self! Poly)) (! (= (lib!spec.KeyType_t.impl&%0.arrow_e.? self!) (lib!spec.KeyType_t.Element./Elem/e (%Poly%lib!spec.KeyType_t.Element. self!))) :pattern ((lib!spec.KeyType_t.impl&%0.arrow_e.? self!)) ))))
(assert (forall ((self! Poly)) (! (=> (has_type self! TYPE%lib!spec.KeyType_t.Element.) (uInv 64 (lib!spec.KeyType_t.impl&%0.arrow_e.? self!))) :pattern ((lib!spec.KeyType_t.impl&%0.arrow_e.? self!)) )))
(declare-fun req%lib!spec.KeyType_t.to_key. (Poly) Bool)
(declare-const %%global_location_label%%0 Bool)
;(define-fun is-lib!spec.KeyType_t.Element./Elem_ ((c lib!spec.KeyType_t.Element.)) Bool ((_ is lib!spec.KeyType_t.Element./Elem) c))
(assert (forall ((elem! Poly)) (! (= (req%lib!spec.KeyType_t.to_key. elem!) (=> %%global_location_label%%0 ((_ is lib!spec.KeyType_t.Element./Elem) (%Poly%lib!spec.KeyType_t.Element. elem!)))) :pattern ((req%lib!spec.KeyType_t.to_key. elem!)) )))
(assert (fuel_bool_default fuel%lib!spec.KeyType_t.to_key.))
(assert (=> (fuel_bool fuel%lib!spec.KeyType_t.to_key.) (forall ((elem! Poly)) (! (= (lib!spec.KeyType_t.to_key.? elem!) (lib!spec.KeyType_t.Key./Key (%I (I (lib!spec.KeyType_t.Element./Elem/e (%Poly%lib!spec.KeyType_t.Element. elem!)))))) :pattern ((lib!spec.KeyType_t.to_key.? elem!)) ))))
(assert (forall ((elem! Poly)) (! (=> (has_type elem! TYPE%lib!spec.KeyType_t.Element.) (has_type (Poly%lib!spec.KeyType_t.Key. (lib!spec.KeyType_t.to_key.? elem!)) TYPE%lib!spec.KeyType_t.Key.)) :pattern ((lib!spec.KeyType_t.to_key.? elem!)) )))
(assert (fuel_bool_default fuel%lib!spec.KeyType_t.impl&%2.lte.))
;(define-fun is-lib!spec.KeyType_t.Element./Max_ ((c lib!spec.KeyType_t.Element.)) Bool ((_ is lib!spec.KeyType_t.Element./Max) c))
(assert (=> (fuel_bool fuel%lib!spec.KeyType_t.impl&%2.lte.) (forall ((a! Poly) (b! Poly)) (! (= (lib!spec.KeyType_t.impl&%2.lte.? a! b!) (or ((_ is lib!spec.KeyType_t.Element./Max) (%Poly%lib!spec.KeyType_t.Element. b!)) (and (and ((_ is lib!spec.KeyType_t.Element./Elem) (%Poly%lib!spec.KeyType_t.Element. a!)) ((_ is lib!spec.KeyType_t.Element./Elem) (%Poly%lib!spec.KeyType_t.Element. b!))) (lib!spec.KeyType_t.impl&%1.lte.? (Poly%lib!spec.KeyType_t.Key. (lib!spec.KeyType_t.to_key.? a!)) (Poly%lib!spec.KeyType_t.Key. (lib!spec.KeyType_t.to_key.? b!)))))) :pattern ((lib!spec.KeyType_t.impl&%2.lte.? a! b!)) ))))
(assert (fuel_bool_default fuel%lib!spec.KeyType_t.impl&%2.lt.))
(assert (=> (fuel_bool fuel%lib!spec.KeyType_t.impl&%2.lt.) (forall ((a! Poly) (b! Poly)) (! (= (lib!spec.KeyType_t.impl&%2.lt.? a! b!) (and (lib!spec.KeyType_t.impl&%2.lte.? a! b!) (not (= a! b!)))) :pattern ((lib!spec.KeyType_t.impl&%2.lt.? a! b!)) ))))
(assert (fuel_bool_default fuel%lib!spec.KeyType_t.to_element.))
(assert (=> (fuel_bool fuel%lib!spec.KeyType_t.to_element.) (forall ((key! Poly)) (! (= (lib!spec.KeyType_t.to_element.? key!) (lib!spec.KeyType_t.Element./Elem (%I (I (lib!spec.KeyType_t.Key./Key/0 (%Poly%lib!spec.KeyType_t.Key. key!)))))) :pattern ((lib!spec.KeyType_t.to_element.? key!)) ))))
(assert (forall ((key! Poly)) (! (=> (has_type key! TYPE%lib!spec.KeyType_t.Key.) (has_type (Poly%lib!spec.KeyType_t.Element. (lib!spec.KeyType_t.to_element.? key!)) TYPE%lib!spec.KeyType_t.Element.)) :pattern ((lib!spec.KeyType_t.to_element.? key!)) )))
(assert (fuel_bool_default fuel%lib!betree.Domain_v.impl&%0.arrow_start.))
(assert (=> (fuel_bool fuel%lib!betree.Domain_v.impl&%0.arrow_start.) (forall ((self! Poly)) (! (= (lib!betree.Domain_v.impl&%0.arrow_start.? self!) (lib!betree.Domain_v.Domain./Domain/start (%Poly%lib!betree.Domain_v.Domain. self!))) :pattern ((lib!betree.Domain_v.impl&%0.arrow_start.? self!)) ))))
(assert (forall ((self! Poly)) (! (=> (has_type self! TYPE%lib!betree.Domain_v.Domain.) (has_type (Poly%lib!spec.KeyType_t.Element. (lib!betree.Domain_v.impl&%0.arrow_start.? self!)) TYPE%lib!spec.KeyType_t.Element.)) :pattern ((lib!betree.Domain_v.impl&%0.arrow_start.? self!)) )))
(assert (fuel_bool_default fuel%lib!betree.Domain_v.impl&%0.arrow_end.))
(assert (=> (fuel_bool fuel%lib!betree.Domain_v.impl&%0.arrow_end.) (forall ((self! Poly)) (! (= (lib!betree.Domain_v.impl&%0.arrow_end.? self!) (lib!betree.Domain_v.Domain./Domain/end (%Poly%lib!betree.Domain_v.Domain. self!))) :pattern ((lib!betree.Domain_v.impl&%0.arrow_end.? self!)) ))))
(assert (forall ((self! Poly)) (! (=> (has_type self! TYPE%lib!betree.Domain_v.Domain.) (has_type (Poly%lib!spec.KeyType_t.Element. (lib!betree.Domain_v.impl&%0.arrow_end.? self!)) TYPE%lib!spec.KeyType_t.Element.)) :pattern ((lib!betree.Domain_v.impl&%0.arrow_end.? self!)) )))
(assert (fuel_bool_default fuel%lib!betree.Domain_v.impl&%1.wf.))
;(define-fun is-lib!betree.Domain_v.Domain./Domain_ ((c lib!betree.Domain_v.Domain.)) Bool ((_ is lib!betree.Domain_v.Domain./Domain) c))
(assert (=> (fuel_bool fuel%lib!betree.Domain_v.impl&%1.wf.) (forall ((self! Poly)) (! (= (lib!betree.Domain_v.impl&%1.wf.? self!) (=> ((_ is lib!betree.Domain_v.Domain./Domain) (%Poly%lib!betree.Domain_v.Domain. self!)) (and (lib!spec.KeyType_t.impl&%2.lt.? (Poly%lib!spec.KeyType_t.Element. (lib!betree.Domain_v.Domain./Domain/start (%Poly%lib!betree.Domain_v.Domain. self!))) (Poly%lib!spec.KeyType_t.Element. (lib!betree.Domain_v.Domain./Domain/end (%Poly%lib!betree.Domain_v.Domain. self!)))) ((_ is lib!spec.KeyType_t.Element./Elem) (lib!betree.Domain_v.Domain./Domain/start (%Poly%lib!betree.Domain_v.Domain. self!)))))) :pattern ((lib!betree.Domain_v.impl&%1.wf.? self!)) ))))
(assert (fuel_bool_default fuel%lib!spec.KeyType_t.impl&%2.min_elem.))
(assert (=> (fuel_bool fuel%lib!spec.KeyType_t.impl&%2.min_elem.) (forall ((no%param Poly)) (! (= (lib!spec.KeyType_t.impl&%2.min_elem.? no%param) (lib!spec.KeyType_t.Element./Elem (%I (I 0)))) :pattern ((lib!spec.KeyType_t.impl&%2.min_elem.? no%param)) ))))
(assert (forall ((no%param Poly)) (! (=> (has_type no%param INT) (has_type (Poly%lib!spec.KeyType_t.Element. (lib!spec.KeyType_t.impl&%2.min_elem.? no%param)) TYPE%lib!spec.KeyType_t.Element.)) :pattern ((lib!spec.KeyType_t.impl&%2.min_elem.? no%param)) )))
(declare-const %return! lib!betree.Domain_v.Domain.)
(declare-const no%param Poly)
(assert fuel_defaults)
(assert (has_type no%param INT))
(assert (not true))
(check-sat)
(exit)
